c ind 10 228 229 23 231 232 234 235 237 238 0
c ind 240 241 243 244 246 247 249 25 250 27 0
c ind 29 3 31 33 35 37 4 56 6 60 0
c ind 64 67 7 70 73 76 79 82 85 88 0
c ind 91 94 97 0
p cnf 270 805
-1 -2 5 0
-1 2 8 0
-100 101 0
-100 36 0
-101 102 0
-101 34 0
-102 103 0
-102 32 0
-103 104 0
-103 30 0
-104 105 0
-104 28 0
-105 106 0
-105 26 0
-106 107 0
-106 22 0
-107 -25 4 0
-107 -4 25 0
-108 -109 5 0
-108 109 116 0
-109 110 0
-109 36 0
-11 -4 6 0
-11 -6 4 0
-110 111 0
-110 34 0
-111 112 0
-111 32 0
-112 113 0
-112 30 0
-113 114 0
-113 28 0
-114 115 0
-114 26 0
-115 107 0
-115 46 0
-116 -117 124 0
-116 117 174 0
-117 118 0
-117 36 0
-118 119 0
-118 34 0
-119 120 0
-119 32 0
-12 -13 14 0
-12 13 5 0
-120 121 0
-120 30 0
-121 122 0
-121 28 0
-122 123 0
-122 21 0
-123 -27 4 0
-123 -4 27 0
-124 -125 11 0
-124 125 5 0
-125 126 0
-125 168 0
-126 127 0
-126 162 0
-127 128 0
-127 156 0
-128 129 0
-128 150 0
-129 130 0
-129 144 0
-13 -10 4 0
-13 -4 10 0
-130 131 0
-130 139 0
-131 132 0
-131 135 0
-132 -133 56 0
-132 -56 133 0
-133 -134 -7 0
-133 134 7 0
-134 -57 -7 0
-134 57 7 0
-135 -136 60 0
-135 -60 136 0
-136 -137 -138 0
-136 137 138 0
-137 -61 -4 0
-137 61 4 0
-138 57 0
-138 7 0
-139 -140 64 0
-139 -64 140 0
-14 -15 11 0
-14 15 38 0
-140 -141 -143 0
-140 141 143 0
-141 -142 -7 0
-141 142 7 0
-142 -58 -68 0
-142 58 68 0
-143 61 138 0
-144 -145 70 0
-144 -70 145 0
-145 -146 -149 0
-145 146 149 0
-146 -147 -7 0
-146 147 7 0
-147 -66 -148 0
-147 66 148 0
-148 68 0
-148 7 0
-149 142 0
-149 143 0
-15 16 0
-15 36 0
-150 -151 76 0
-150 -76 151 0
-151 -152 -155 0
-151 152 155 0
-152 -153 -7 0
-152 153 7 0
-153 -72 -154 0
-153 72 154 0
-154 148 0
-154 67 0
-155 147 0
-155 149 0
-156 -157 82 0
-156 -82 157 0
-157 -158 -161 0
-157 158 161 0
-158 -159 -7 0
-158 159 7 0
-159 -78 -160 0
-159 78 160 0
-16 17 0
-16 34 0
-160 154 0
-160 73 0
-161 153 0
-161 155 0
-162 -163 88 0
-162 -88 163 0
-163 -164 -167 0
-163 164 167 0
-164 -165 -7 0
-164 165 7 0
-165 -84 -166 0
-165 84 166 0
-166 160 0
-166 79 0
-167 159 0
-167 161 0
-168 -169 94 0
-168 -94 169 0
-169 -170 -173 0
-169 170 173 0
-17 18 0
-17 32 0
-170 -171 -7 0
-170 171 7 0
-171 -90 -172 0
-171 90 172 0
-172 166 0
-172 85 0
-173 165 0
-173 167 0
-174 -175 11 0
-174 175 181 0
-175 176 0
-175 36 0
-176 177 0
-176 34 0
-177 178 0
-177 32 0
-178 179 0
-178 30 0
-179 180 0
-179 28 0
-18 19 0
-18 30 0
-180 123 0
-180 45 0
-181 -182 11 0
-181 182 188 0
-182 183 0
-182 36 0
-183 184 0
-183 34 0
-184 185 0
-184 32 0
-185 186 0
-185 30 0
-186 187 0
-186 28 0
-187 106 0
-187 123 0
-188 -189 11 0
-188 189 195 0
-189 190 0
-189 36 0
-19 20 0
-19 28 0
-190 191 0
-190 34 0
-191 192 0
-191 32 0
-192 193 0
-192 30 0
-193 194 0
-193 28 0
-194 115 0
-194 123 0
-195 -196 11 0
-195 196 202 0
-196 197 0
-196 36 0
-197 198 0
-197 34 0
-198 199 0
-198 32 0
-199 200 0
-199 30 0
-2 -3 4 0
-2 -4 3 0
-20 21 0
-20 26 0
-200 20 0
-200 201 0
-201 -29 4 0
-201 -4 29 0
-202 -203 11 0
-202 203 208 0
-203 204 0
-203 36 0
-204 205 0
-204 34 0
-205 206 0
-205 32 0
-206 207 0
-206 30 0
-207 201 0
-207 44 0
-208 -209 11 0
-208 209 214 0
-209 210 0
-209 36 0
-21 22 0
-21 24 0
-210 211 0
-210 34 0
-211 212 0
-211 32 0
-212 19 0
-212 213 0
-213 -31 4 0
-213 -4 31 0
-214 -215 219 0
-214 215 251 0
-215 216 0
-215 36 0
-216 217 0
-216 34 0
-217 218 0
-217 32 0
-218 213 0
-218 43 0
-219 -220 11 0
-219 220 5 0
-22 -23 7 0
-22 -7 23 0
-220 221 0
-220 248 0
-221 222 0
-221 245 0
-222 223 0
-222 242 0
-223 224 0
-223 239 0
-224 225 0
-224 236 0
-225 226 0
-225 233 0
-226 227 0
-226 230 0
-227 -228 229 0
-227 -229 228 0
-230 -231 232 0
-230 -232 231 0
-233 -234 235 0
-233 -235 234 0
-236 -237 238 0
-236 -238 237 0
-239 -240 241 0
-239 -241 240 0
-24 -25 7 0
-24 -7 25 0
-242 -243 244 0
-242 -244 243 0
-245 -246 247 0
-245 -247 246 0
-248 -249 250 0
-248 -250 249 0
-251 -252 5 0
-251 252 256 0
-252 253 0
-252 36 0
-253 254 0
-253 34 0
-254 255 0
-254 32 0
-255 104 0
-255 213 0
-256 -257 5 0
-256 257 261 0
-257 258 0
-257 36 0
-258 259 0
-258 34 0
-259 260 0
-259 32 0
-26 -27 7 0
-26 -7 27 0
-260 113 0
-260 213 0
-261 -262 11 0
-261 262 266 0
-262 263 0
-262 36 0
-263 264 0
-263 34 0
-264 265 0
-264 32 0
-265 121 0
-265 213 0
-266 -267 11 0
-266 267 5 0
-267 268 0
-267 36 0
-268 269 0
-268 34 0
-269 270 0
-269 32 0
-270 179 0
-270 213 0
-28 -29 7 0
-28 -7 29 0
-30 -31 7 0
-30 -7 31 0
-32 -33 7 0
-32 -7 33 0
-34 -35 7 0
-34 -7 35 0
-36 -37 7 0
-36 -7 37 0
-38 -39 47 0
-38 39 99 0
-39 36 0
-39 40 0
-40 34 0
-40 41 0
-41 32 0
-41 42 0
-42 30 0
-42 43 0
-43 28 0
-43 44 0
-44 26 0
-44 45 0
-45 24 0
-45 46 0
-46 -23 4 0
-46 -4 23 0
-47 -48 11 0
-47 48 5 0
-48 49 0
-48 93 0
-49 50 0
-49 87 0
-5 -6 7 0
-5 -7 6 0
-50 51 0
-50 81 0
-51 52 0
-51 75 0
-52 53 0
-52 69 0
-53 54 0
-53 63 0
-54 55 0
-54 59 0
-55 -56 57 0
-55 -57 56 0
-57 -58 -7 0
-57 58 7 0
-58 -7 -7 0
-58 7 7 0
-59 -60 61 0
-59 -61 60 0
-61 -58 -62 0
-61 58 62 0
-62 7 0
-63 -64 65 0
-63 -65 64 0
-65 -66 -68 0
-65 66 68 0
-66 -7 -67 0
-66 7 67 0
-68 62 0
-68 7 0
-69 -70 71 0
-69 -71 70 0
-7 0
-71 -72 -74 0
-71 72 74 0
-72 -7 -73 0
-72 7 73 0
-74 67 0
-74 68 0
-75 -76 77 0
-75 -77 76 0
-77 -78 -80 0
-77 78 80 0
-78 -7 -79 0
-78 7 79 0
-8 -9 11 0
-8 9 12 0
-80 73 0
-80 74 0
-81 -82 83 0
-81 -83 82 0
-83 -84 -86 0
-83 84 86 0
-84 -7 -85 0
-84 7 85 0
-86 79 0
-86 80 0
-87 -88 89 0
-87 -89 88 0
-89 -90 -92 0
-89 90 92 0
-9 -10 7 0
-9 -7 10 0
-90 -7 -91 0
-90 7 91 0
-92 85 0
-92 86 0
-93 -94 95 0
-93 -95 94 0
-95 -96 -98 0
-95 96 98 0
-96 -7 -97 0
-96 7 97 0
-98 91 0
-98 92 0
-99 -100 11 0
-99 100 108 0
1 -2 -5 0
1 -5 -8 0
1 0
1 2 -8 0
100 -101 -36 0
101 -102 -34 0
102 -103 -32 0
103 -104 -30 0
104 -105 -28 0
105 -106 -26 0
106 -22 -107 0
107 -25 -4 0
107 25 4 0
108 -109 -5 0
108 -5 -116 0
108 109 -116 0
109 -110 -36 0
11 -6 -4 0
11 6 4 0
110 -111 -34 0
111 -112 -32 0
112 -113 -30 0
113 -114 -28 0
114 -115 -26 0
115 -46 -107 0
116 -117 -124 0
116 -124 -174 0
116 117 -174 0
117 -118 -36 0
118 -119 -34 0
119 -120 -32 0
12 -13 -14 0
12 -14 -5 0
12 13 -5 0
120 -121 -30 0
121 -122 -28 0
122 -21 -123 0
123 -27 -4 0
123 27 4 0
124 -11 -5 0
124 -125 -11 0
124 125 -5 0
125 -126 -168 0
126 -127 -162 0
127 -128 -156 0
128 -129 -150 0
129 -130 -144 0
13 -10 -4 0
13 10 4 0
130 -131 -139 0
131 -132 -135 0
132 -56 -133 0
132 56 133 0
133 -134 7 0
133 -7 134 0
134 -57 7 0
134 -7 57 0
135 -60 -136 0
135 60 136 0
136 -137 138 0
136 -138 137 0
137 -4 61 0
137 -61 4 0
138 -57 -7 0
139 -64 -140 0
139 64 140 0
14 -11 -38 0
14 -15 -11 0
14 15 -38 0
140 -141 143 0
140 -143 141 0
141 -142 7 0
141 -7 142 0
142 -58 68 0
142 -68 58 0
143 -138 0
143 -61 0
144 -70 -145 0
144 70 145 0
145 -146 149 0
145 -149 146 0
146 -147 7 0
146 -7 147 0
147 -148 66 0
147 -66 148 0
148 -7 -68 0
149 -142 -143 0
15 -16 -36 0
150 -76 -151 0
150 76 151 0
151 -152 155 0
151 -155 152 0
152 -153 7 0
152 -7 153 0
153 -154 72 0
153 -72 154 0
154 -67 -148 0
155 -147 -149 0
156 -82 -157 0
156 82 157 0
157 -158 161 0
157 -161 158 0
158 -159 7 0
158 -7 159 0
159 -160 78 0
159 -78 160 0
16 -17 -34 0
160 -73 -154 0
161 -153 -155 0
162 -88 -163 0
162 88 163 0
163 -164 167 0
163 -167 164 0
164 -165 7 0
164 -7 165 0
165 -166 84 0
165 -84 166 0
166 -79 -160 0
167 -159 -161 0
168 -94 -169 0
168 94 169 0
169 -170 173 0
169 -173 170 0
17 -18 -32 0
170 -171 7 0
170 -7 171 0
171 -172 90 0
171 -90 172 0
172 -85 -166 0
173 -165 -167 0
174 -11 -181 0
174 -175 -11 0
174 175 -181 0
175 -176 -36 0
176 -177 -34 0
177 -178 -32 0
178 -179 -30 0
179 -180 -28 0
18 -19 -30 0
180 -45 -123 0
181 -11 -188 0
181 -182 -11 0
181 182 -188 0
182 -183 -36 0
183 -184 -34 0
184 -185 -32 0
185 -186 -30 0
186 -187 -28 0
187 -106 -123 0
188 -11 -195 0
188 -189 -11 0
188 189 -195 0
189 -190 -36 0
19 -20 -28 0
190 -191 -34 0
191 -192 -32 0
192 -193 -30 0
193 -194 -28 0
194 -115 -123 0
195 -11 -202 0
195 -196 -11 0
195 196 -202 0
196 -197 -36 0
197 -198 -34 0
198 -199 -32 0
199 -200 -30 0
2 -3 -4 0
2 3 4 0
20 -21 -26 0
200 -20 -201 0
201 -29 -4 0
201 29 4 0
202 -11 -208 0
202 -203 -11 0
202 203 -208 0
203 -204 -36 0
204 -205 -34 0
205 -206 -32 0
206 -207 -30 0
207 -44 -201 0
208 -11 -214 0
208 -209 -11 0
208 209 -214 0
209 -210 -36 0
21 -22 -24 0
210 -211 -34 0
211 -212 -32 0
212 -19 -213 0
213 -31 -4 0
213 31 4 0
214 -215 -219 0
214 -219 -251 0
214 215 -251 0
215 -216 -36 0
216 -217 -34 0
217 -218 -32 0
218 -43 -213 0
219 -11 -5 0
219 -220 -11 0
219 220 -5 0
22 -23 -7 0
22 23 7 0
220 -221 -248 0
221 -222 -245 0
222 -223 -242 0
223 -224 -239 0
224 -225 -236 0
225 -226 -233 0
226 -227 -230 0
227 -228 -229 0
227 228 229 0
230 -231 -232 0
230 231 232 0
233 -234 -235 0
233 234 235 0
236 -237 -238 0
236 237 238 0
239 -240 -241 0
239 240 241 0
24 -25 -7 0
24 25 7 0
242 -243 -244 0
242 243 244 0
245 -246 -247 0
245 246 247 0
248 -249 -250 0
248 249 250 0
251 -252 -5 0
251 -5 -256 0
251 252 -256 0
252 -253 -36 0
253 -254 -34 0
254 -255 -32 0
255 -104 -213 0
256 -257 -5 0
256 -5 -261 0
256 257 -261 0
257 -258 -36 0
258 -259 -34 0
259 -260 -32 0
26 -27 -7 0
26 27 7 0
260 -113 -213 0
261 -11 -266 0
261 -262 -11 0
261 262 -266 0
262 -263 -36 0
263 -264 -34 0
264 -265 -32 0
265 -121 -213 0
266 -11 -5 0
266 -267 -11 0
266 267 -5 0
267 -268 -36 0
268 -269 -34 0
269 -270 -32 0
270 -179 -213 0
28 -29 -7 0
28 29 7 0
30 -31 -7 0
30 31 7 0
32 -33 -7 0
32 33 7 0
34 -35 -7 0
34 35 7 0
36 -37 -7 0
36 37 7 0
38 -39 -47 0
38 -47 -99 0
38 39 -99 0
39 -40 -36 0
4 0
40 -41 -34 0
41 -42 -32 0
42 -43 -30 0
43 -44 -28 0
44 -45 -26 0
45 -46 -24 0
46 -23 -4 0
46 23 4 0
47 -11 -5 0
47 -48 -11 0
47 48 -5 0
48 -49 -93 0
49 -50 -87 0
5 -6 -7 0
5 6 7 0
50 -51 -81 0
51 -52 -75 0
52 -53 -69 0
53 -54 -63 0
54 -55 -59 0
55 -56 -57 0
55 56 57 0
57 -58 7 0
57 -7 58 0
58 -7 7 0
59 -60 -61 0
59 60 61 0
61 -58 62 0
61 -62 58 0
62 -7 -7 0
63 -64 -65 0
63 64 65 0
65 -66 68 0
65 -68 66 0
66 -67 7 0
66 -7 67 0
68 -7 -62 0
69 -70 -71 0
69 70 71 0
71 -72 74 0
71 -74 72 0
72 -7 73 0
72 -73 7 0
74 -67 -68 0
75 -76 -77 0
75 76 77 0
77 -78 80 0
77 -80 78 0
78 -7 79 0
78 -79 7 0
8 -11 -12 0
8 -9 -11 0
8 9 -12 0
80 -73 -74 0
81 -82 -83 0
81 82 83 0
83 -84 86 0
83 -86 84 0
84 -7 85 0
84 -85 7 0
86 -79 -80 0
87 -88 -89 0
87 88 89 0
89 -90 92 0
89 -92 90 0
9 -10 -7 0
9 10 7 0
90 -7 91 0
90 -91 7 0
92 -85 -86 0
93 -94 -95 0
93 94 95 0
95 -96 98 0
95 -98 96 0
96 -7 97 0
96 -97 7 0
98 -91 -92 0
99 -100 -11 0
99 -11 -108 0
99 100 -108 0
